NAME : pr20.tsp.420175.tour
COMMENT : Length = 420175
COMMENT : Found by LKH [Keld Helsgaun] Thu Jun 15 23:00:12 2017
TYPE : TOUR
DIMENSION : 20
TOUR_SECTION
1
9
15
20
16
2
6
14
7
11
12
8
19
3
4
18
10
5
13
17
-1
EOF
